20 18
1 5 9 13 17
2 6 10 14 18
3 7 11 15 19
4 8 12 16 20
1 2 3 4 5
6 7 8 9 10
11 12 13 14 15
16 17 18 19 20
1 6 11 16
2 7 12 17
3 8 13 18
4 9 14 19
5 10 15 20
1 10 11 20
2 9 12 19
3 8 13 18
4 7 14 17
5 6 15 16